<number of tasks>
29

<cycle time>
30

<task times>
1 7
2 19
3 15
4 5
5 12
6 10
7 8
8 16
9 2
10 6
11 21
12 10
13 9
14 4
15 14
16 7
17 14
18 17
19 10
20 16
21 1
22 9
23 25
24 14
25 14
26 2
27 10
28 7
29 20

<precedence relations>
1,3
1,25
2,6
2,26
3,4
4,5
5,8
5,13
6,8
7,9
7,12
7,25
8,11
8,16
9,10
10,14
10,15
11,17
12,15
13,17
14,16
15,19
16,18
17,20
18,22
19,21
20,23
21,22
22,23
23,24
23,28
24,29
25,29
26,27
27,29
28,29

<setup times forward>
1,3:3
1,6:1
1,7:3
1,9:3
1,10:1
1,12:1
1,15:1
1,19:3
1,21:2
1,25:3
1,27:1
2,3:3
2,4:3
2,5:1
2,6:1
2,7:3
2,9:3
2,10:1
2,12:1
2,13:2
2,15:1
2,19:3
2,21:2
2,25:3
3,2:3
3,6:2
3,10:4
3,12:4
3,14:3
3,15:2
3,19:6
3,21:1
3,25:6
3,26:3
3,27:2
4,2:3
4,5:4
4,6:2
4,10:4
4,12:4
4,14:3
4,15:2
4,19:6
4,21:1
4,25:6
4,26:3
4,27:2
5,2:1
5,6:2
5,7:4
5,8:2
5,9:4
5,13:1
5,14:1
5,15:2
5,19:2
5,21:3
5,25:2
5,26:1
5,27:2
6,1:1
6,3:2
6,4:2
6,5:2
6,7:2
6,9:2
6,10:2
6,12:2
6,13:3
6,14:1
6,19:4
6,21:1
6,25:4
6,26:1
7,1:3
7,2:3
7,5:4
7,6:2
7,8:2
7,11:5
7,12:4
7,13:5
7,17:6
7,20:1
7,25:6
7,26:3
7,27:2
8,7:2
8,9:2
8,10:2
8,11:3
8,12:2
8,13:3
8,14:1
8,16:1
8,19:4
8,21:1
8,25:4
8,26:1
9,1:3
9,2:3
9,5:4
9,6:2
9,8:2
9,10:4
9,11:5
9,12:4
9,13:5
9,17:6
9,20:1
9,25:6
9,26:3
9,27:2
10,1:1
10,2:1
10,3:4
10,4:4
10,6:2
10,8:2
10,11:1
10,13:1
10,14:1
10,15:2
10,17:2
10,20:3
10,25:2
10,26:1
10,27:2
11,7:5
11,9:5
11,10:1
11,12:1
11,14:2
11,15:3
11,16:2
11,17:1
11,18:2
11,19:1
11,21:4
11,22:4
11,25:1
11,26:2
11,27:3
12,1:1
12,2:1
12,3:4
12,4:4
12,6:2
12,8:2
12,9:4
12,11:1
12,13:1
12,14:1
12,15:2
12,16:1
12,17:2
12,18:1
12,20:3
12,25:2
12,26:1
12,27:2
13,2:2
13,6:3
13,7:5
13,8:3
13,9:5
13,10:1
13,12:1
13,14:2
13,15:3
13,16:2
13,17:1
13,18:2
13,19:1
13,21:4
13,22:4
13,25:1
13,26:2
13,27:3
14,3:3
14,4:3
14,5:1
14,6:1
14,8:1
14,11:2
14,12:1
14,13:2
14,15:1
14,17:3
14,19:3
14,20:2
14,21:2
14,25:3
14,27:1
15,1:1
15,2:1
15,3:2
15,4:2
15,5:2
15,11:3
15,13:3
15,14:1
15,16:1
15,17:4
15,18:1
15,19:4
15,20:1
15,25:4
15,26:1
16,11:2
16,12:1
16,13:2
16,15:1
16,17:3
16,19:3
16,20:2
16,21:2
16,25:3
16,27:1
17,7:6
17,9:6
17,10:2
17,12:2
17,14:3
17,15:4
17,16:3
17,18:3
17,20:5
17,21:5
17,22:5
17,26:3
17,27:4
18,11:2
18,12:1
18,13:2
18,15:1
18,17:3
18,19:3
18,20:2
18,21:2
18,22:2
18,25:3
18,27:1
19,1:3
19,2:3
19,3:6
19,4:6
19,5:2
19,6:4
19,8:4
19,11:1
19,13:1
19,14:3
19,16:3
19,18:3
19,20:5
19,21:5
19,26:3
19,27:4
20,7:1
20,9:1
20,10:3
20,12:3
20,14:2
20,15:1
20,16:2
20,18:2
20,19:5
20,23:3
20,25:5
20,26:2
20,27:1
21,1:2
21,2:2
21,3:1
21,4:1
21,5:3
21,6:1
21,8:1
21,11:4
21,13:4
21,14:2
21,16:2
21,17:5
21,18:2
21,25:5
21,26:2
21,27:1
22,11:4
22,13:4
22,17:5
22,23:3
22,25:5
22,26:2
22,27:1
23,24:2
23,25:2
23,26:1
23,27:2
23,28:1
24,26:3
24,27:4
24,28:3
24,29:3
25,2:3
25,3:6
25,4:6
25,5:2
25,6:4
25,8:4
25,9:6
25,10:2
25,11:1
25,12:2
25,13:1
25,14:3
25,15:4
25,16:3
25,18:3
25,20:5
25,21:5
25,22:5
25,23:2
25,26:3
25,27:4
25,28:3
25,29:3
26,3:3
26,4:3
26,5:1
26,6:1
26,7:3
26,8:1
26,9:3
26,10:1
26,11:2
26,12:1
26,13:2
26,15:1
26,17:3
26,19:3
26,20:2
26,21:2
26,22:2
26,23:1
26,24:3
26,25:3
26,27:1
27,1:1
27,3:2
27,4:2
27,5:2
27,7:2
27,9:2
27,10:2
27,11:3
27,12:2
27,13:3
27,14:1
27,16:1
27,17:4
27,18:1
27,19:4
27,20:1
27,21:1
27,22:1
27,23:2
27,24:4
27,25:4
27,28:1
27,29:1
28,24:3
28,25:3
28,27:1

<setup times backward>
1,10:1
1,12:1
1,19:3
2,5:1
2,10:1
2,12:1
2,13:2
2,19:3
2,25:3
3,1:3
3,2:3
3,6:2
3,10:4
3,12:4
3,14:3
3,15:2
3,19:6
3,21:1
3,25:6
3,26:3
3,27:2
4,1:3
4,2:3
4,6:2
4,10:4
4,12:4
4,14:3
4,15:2
4,19:6
4,21:1
4,25:6
4,26:3
4,27:2
5,19:2
5,25:2
6,1:1
6,2:1
6,5:2
6,10:2
6,12:2
6,13:3
6,14:1
6,19:4
6,25:4
6,26:1
7,1:3
7,2:3
7,5:4
7,6:2
7,8:2
7,11:5
7,13:5
7,17:6
7,20:1
7,26:3
7,27:2
8,1:1
8,2:1
8,5:2
8,10:2
8,12:2
8,13:3
8,14:1
8,19:4
8,25:4
8,26:1
9,1:3
9,2:3
9,5:4
9,6:2
9,8:2
9,11:5
9,12:4
9,13:5
9,17:6
9,20:1
9,25:6
9,26:3
9,27:2
10,11:1
10,13:1
10,17:2
10,25:2
11,19:1
11,25:1
12,11:1
12,13:1
12,17:2
12,25:2
13,19:1
13,25:1
14,5:1
14,10:1
14,11:2
14,12:1
14,13:2
14,17:3
14,19:3
14,25:3
15,1:1
15,2:1
15,5:2
15,10:2
15,11:3
15,12:2
15,13:3
15,14:1
15,16:1
15,17:4
15,18:1
15,25:4
15,26:1
16,5:1
16,10:1
16,11:2
16,12:1
16,13:2
16,17:3
16,19:3
16,25:3
18,5:1
18,10:1
18,11:2
18,12:1
18,13:2
18,17:3
18,19:3
18,25:3
20,1:2
20,2:2
20,5:3
20,6:1
20,8:1
20,10:3
20,11:4
20,12:3
20,13:4
20,14:2
20,15:1
20,16:2
20,17:5
20,18:2
20,19:5
20,25:5
20,26:2
20,27:1
21,1:2
21,2:2
21,5:3
21,6:1
21,8:1
21,10:3
21,11:4
21,12:3
21,13:4
21,14:2
21,15:1
21,16:2
21,17:5
21,18:2
21,19:5
21,25:5
21,26:2
21,27:1
22,1:2
22,2:2
22,5:3
22,6:1
22,8:1
22,10:3
22,11:4
22,12:3
22,13:4
22,14:2
22,15:1
22,16:2
22,17:5
22,18:2
22,19:5
22,25:5
22,26:2
22,27:1
23,11:1
23,13:1
23,17:2
23,19:2
23,25:2
26,5:1
26,10:1
26,11:2
26,12:1
26,13:2
26,17:3
26,19:3
26,23:1
26,24:3
26,25:3
27,1:1
27,2:1
27,5:2
27,10:2
27,11:3
27,12:2
27,13:3
27,14:1
27,16:1
27,17:4
27,18:1
27,19:4
27,23:2
27,24:4
27,25:4
27,26:1
27,28:1
28,5:1
28,10:1
28,11:2
28,12:1
28,13:2
28,17:3
28,19:3
28,23:1
28,24:3
28,25:3
29,5:1
29,10:1
29,11:2
29,12:1
29,13:2
29,17:3
29,19:3
29,23:1
29,24:3
29,25:3

<end>

<optimal SALBP-1 value>
12


<rand seed>
467321153

<Lower Bounds>
Lm1=11
Lms1=11
Lm2=8
Lm3=9
Lm4=11
Best=11

<Optimal Stations (Iterations: 10)>
15
